12 66
1 2 5
1 3 3
1 4 2
1 5 1
1 6 4
1 7 4
1 8 3
1 9 2
1 10 1
1 11 3
1 12 2
2 3 2
2 4 3
2 5 5
2 6 1
2 7 4
2 8 3
2 9 4
2 10 5
2 11 1
2 12 2
3 4 2
3 5 2
3 6 3
3 7 5
3 8 1
3 9 4
3 10 4
3 11 2
3 12 4
4 5 5
4 6 5
4 7 3
4 8 1
4 9 1
4 10 4
4 11 3
4 12 3
5 6 3
5 7 3
5 8 1
5 9 1
5 10 5
5 11 4
5 12 4
6 7 3
6 8 2
6 9 3
6 10 5
6 11 5
6 12 1
7 8 2
7 9 5
7 10 5
7 11 4
7 12 4
8 9 5
8 10 3
8 11 2
8 12 1
9 10 1
9 11 2
9 12 1
10 11 4
10 12 1
11 12 5
